11
1 0 41
2 0 21
2 1 30
3 0 41
3 1 20
3 2 44
4 0 35
4 1 4
4 2 45
4 3 22
5 0 21
5 1 13
5 2 13
5 3 29
5 4 41
6 0 12
6 1 24
6 2 40
6 3 19
6 4 42
6 5 43
7 0 7
7 1 2
7 2 35
7 3 24
7 4 18
7 5 10
7 6 29
8 0 20
8 1 24
8 2 36
8 3 23
8 4 5
8 5 41
8 6 2
8 7 34
9 0 11
9 1 13
9 2 50
9 3 1
9 4 28
9 5 12
9 6 20
9 7 39
9 8 11
10 0 3
10 1 11
10 2 26
10 3 11
10 4 10
10 5 25
10 6 35
10 7 18
10 8 1
10 9 50
